unknown
(model
; cardinality of BoundSet is 1
(declare-sort BoundSet 0)
; rep: @uc_BoundSet_0
(declare-sort UnboundSet 0)
(define-fun IsSlightlyObese ((BOUND_VARIABLE_337 BoundSet)) Bool true)
(define-fun IsNormal ((BOUND_VARIABLE_337 BoundSet)) Bool false)
(define-fun IsObeseIn ((BOUND_VARIABLE_337 BoundSet)) Bool false)
)
